NAME: name
TYPE: ATSP
COMMENT: comment
DIMENSION: 4
EDGE_WEIGHT_TYPE: EXPLICIT
EDGE_WEIGHT_FORMAT: FULL_MATRIX
EDGE_WEIGHT_SECTION
99999.0 60.0 
72.0 33.0 
60.0 99999.0 
28.0 27.0 
72.0 28.0 
99999.0 43.0 
33.0 27.0 
43.0 99999.0 
EOF
